NAME: instance_3383
TYPE: TSP
DIMENSION: 20
EDGE_WEIGHT_TYPE: EUC_2D
NODE_COORD_SECTION
0 66.77 26.17
1 32.60 32.99
2 78.06 87.85
3 43.68 59.33
4 13.05 74.64
5 96.01 70.49
6 29.09 75.63
7 43.10 51.42
8 5.00 10.68
9 38.61 44.97
10 9.41 33.38
11 78.92 38.83
12 31.87 59.50
13 53.53 65.87
14 96.75 25.64
15 16.42 78.58
16 86.20 81.61
17 90.28 74.33
18 66.64 88.39
19 9.22 61.19
EOF
